\Generated by Cardinal Operations

Maximize
   1200 x_0_0 + 1200 x_0_1 + 1200 x_0_2 + 1200 x_0_3 + 1200 x_0_4 
   + 1200 x_0_5 + 1200 x_0_6 + 1200 x_0_7 + 1200 x_0_8 + 1200 x_0_9 
   + 1800 x_1_0 + 1800 x_1_1 + 1800 x_1_2 + 1800 x_1_3 + 1800 x_1_4 
   + 1800 x_1_5 + 1800 x_1_6 + 1800 x_1_7 + 1800 x_1_8 + 1800 x_1_9 
   + 2500 x_2_0 + 2500 x_2_1 + 2500 x_2_2 + 2500 x_2_3 + 2500 x_2_4 
   + 2500 x_2_5 + 2500 x_2_6 + 2500 x_2_7 + 2500 x_2_8 + 2500 x_2_9 
   + 2000 x_3_0 + 2000 x_3_1 + 2000 x_3_2 + 2000 x_3_3 + 2000 x_3_4 
   + 2000 x_3_5 + 2000 x_3_6 + 2000 x_3_7 + 2000 x_3_8 + 2000 x_3_9 
   + 1500 x_4_0 + 1500 x_4_1 + 1500 x_4_2 + 1500 x_4_3 + 1500 x_4_4 
   + 1500 x_4_5 + 1500 x_4_6 + 1500 x_4_7 + 1500 x_4_8 + 1500 x_4_9 
   + 3000 x_5_0 + 3000 x_5_1 + 3000 x_5_2 + 3000 x_5_3 + 3000 x_5_4 
   + 3000 x_5_5 + 3000 x_5_6 + 3000 x_5_7 + 3000 x_5_8 + 3000 x_5_9 
   + 1000 x_6_0 + 1000 x_6_1 + 1000 x_6_2 + 1000 x_6_3 + 1000 x_6_4 
   + 1000 x_6_5 + 1000 x_6_6 + 1000 x_6_7 + 1000 x_6_8 + 1000 x_6_9 
   + 3500 x_7_0 + 3500 x_7_1 + 3500 x_7_2 + 3500 x_7_3 + 3500 x_7_4 
   + 3500 x_7_5 + 3500 x_7_6 + 3500 x_7_7 + 3500 x_7_8 + 3500 x_7_9 
   + 1600 x_8_0 + 1600 x_8_1 + 1600 x_8_2 + 1600 x_8_3 + 1600 x_8_4 
   + 1600 x_8_5 + 1600 x_8_6 + 1600 x_8_7 + 1600 x_8_8 + 1600 x_8_9 
   + 1700 x_9_0 + 1700 x_9_1 + 1700 x_9_2 + 1700 x_9_3 + 1700 x_9_4 
   + 1700 x_9_5 + 1700 x_9_6 + 1700 x_9_7 + 1700 x_9_8 + 1700 x_9_9 
Subject To
 capacity_constraint: 20 x_0_0 + 15 x_1_0 + 25 x_2_0 + 18 x_3_0 + 10 x_4_0 
   + 5 x_5_0 + 22 x_6_0 + 8 x_7_0 + 12 x_8_0 + 7 x_9_0 <= 100
 20 x_0_1 + 15 x_1_1 + 25 x_2_1 + 18 x_3_1 + 10 x_4_1 + 5 x_5_1 + 22 x_6_1 
   + 8 x_7_1 + 12 x_8_1 + 7 x_9_1 <= 80
 20 x_0_2 + 15 x_1_2 + 25 x_2_2 + 18 x_3_2 + 10 x_4_2 + 5 x_5_2 + 22 x_6_2 
   + 8 x_7_2 + 12 x_8_2 + 7 x_9_2 <= 120
 20 x_0_3 + 15 x_1_3 + 25 x_2_3 + 18 x_3_3 + 10 x_4_3 + 5 x_5_3 + 22 x_6_3 
   + 8 x_7_3 + 12 x_8_3 + 7 x_9_3 <= 90
 20 x_0_4 + 15 x_1_4 + 25 x_2_4 + 18 x_3_4 + 10 x_4_4 + 5 x_5_4 + 22 x_6_4 
   + 8 x_7_4 + 12 x_8_4 + 7 x_9_4 <= 50
 20 x_0_5 + 15 x_1_5 + 25 x_2_5 + 18 x_3_5 + 10 x_4_5 + 5 x_5_5 + 22 x_6_5 
   + 8 x_7_5 + 12 x_8_5 + 7 x_9_5 <= 30
 20 x_0_6 + 15 x_1_6 + 25 x_2_6 + 18 x_3_6 + 10 x_4_6 + 5 x_5_6 + 22 x_6_6 
   + 8 x_7_6 + 12 x_8_6 + 7 x_9_6 <= 110
 20 x_0_7 + 15 x_1_7 + 25 x_2_7 + 18 x_3_7 + 10 x_4_7 + 5 x_5_7 + 22 x_6_7 
   + 8 x_7_7 + 12 x_8_7 + 7 x_9_7 <= 40
 20 x_0_8 + 15 x_1_8 + 25 x_2_8 + 18 x_3_8 + 10 x_4_8 + 5 x_5_8 + 22 x_6_8 
   + 8 x_7_8 + 12 x_8_8 + 7 x_9_8 <= 60
 20 x_0_9 + 15 x_1_9 + 25 x_2_9 + 18 x_3_9 + 10 x_4_9 + 5 x_5_9 + 22 x_6_9 
   + 8 x_7_9 + 12 x_8_9 + 7 x_9_9 <= 35
Generals
 x_0_0  x_0_1  x_0_2  x_0_3  x_0_4  x_0_5  x_0_6  x_0_7  x_0_8  x_0_9  
 x_1_0  x_1_1  x_1_2  x_1_3  x_1_4  x_1_5  x_1_6  x_1_7  x_1_8  x_1_9  
 x_2_0  x_2_1  x_2_2  x_2_3  x_2_4  x_2_5  x_2_6  x_2_7  x_2_8  x_2_9  
 x_3_0  x_3_1  x_3_2  x_3_3  x_3_4  x_3_5  x_3_6  x_3_7  x_3_8  x_3_9  
 x_4_0  x_4_1  x_4_2  x_4_3  x_4_4  x_4_5  x_4_6  x_4_7  x_4_8  x_4_9  
 x_5_0  x_5_1  x_5_2  x_5_3  x_5_4  x_5_5  x_5_6  x_5_7  x_5_8  x_5_9  
 x_6_0  x_6_1  x_6_2  x_6_3  x_6_4  x_6_5  x_6_6  x_6_7  x_6_8  x_6_9  
 x_7_0  x_7_1  x_7_2  x_7_3  x_7_4  x_7_5  x_7_6  x_7_7  x_7_8  x_7_9  
 x_8_0  x_8_1  x_8_2  x_8_3  x_8_4  x_8_5  x_8_6  x_8_7  x_8_8  x_8_9  
 x_9_0  x_9_1  x_9_2  x_9_3  x_9_4  x_9_5  x_9_6  x_9_7  x_9_8  x_9_9  
END

